output ["\"output\": {","\"default\": ",showJSON(concat([show(solution_grid[r,c])++if c==9 then "\n" else " " endif | r in 1..9, c in 1..9])),", \"raw\": ",showJSON(concat([show(solution_grid[r,c])++if c==9 then "\n" else " " endif | r in 1..9, c in 1..9])),"}, \"sections\": [\"default\", \"raw\"]"];
array [1..81] of int: X_INTRODUCED_0_;
array [1..9,1..9] of int: solution_grid = array2d(1..9,1..9,X_INTRODUCED_0_);
